CPXPARAM_Read_DataCheck                          1
Found incumbent of value 0.000000 after 0.00 sec. (0.08 ticks)
Tried aggregator 1 time.
MIP Presolve modified 1 coefficients.
Reduced MIP has 331 rows, 3010 columns, and 15040 nonzeros.
Reduced MIP has 3010 binaries, 0 generals, 0 SOSs, and 0 indicators.
Presolve time = 0.00 sec. (5.74 ticks)
Tried aggregator 1 time.
Reduced MIP has 331 rows, 3010 columns, and 15040 nonzeros.
Reduced MIP has 3010 binaries, 0 generals, 0 SOSs, and 0 indicators.
Presolve time = 0.02 sec. (6.85 ticks)
Probing time = 0.02 sec. (2.01 ticks)
Clique table members: 5633.
MIP emphasis: balance optimality and feasibility.
MIP search method: dynamic search.
Parallel mode: deterministic, using up to 4 threads.
Root relaxation solution time = 0.01 sec. (11.64 ticks)

        Nodes                                         Cuts/
   Node  Left     Objective  IInf  Best Integer    Best Bound    ItCnt     Gap

*     0+    0                            0.0000    18317.0000              --- 
      0     0     4326.2038    12        0.0000     4326.2038      494     --- 
      0     0     3951.9635   298        0.0000     Cuts: 182      835     --- 
*     0+    0                         3704.0000     3951.9635             6.69%
      0     0        cutoff           3704.0000     3704.0000     1199    0.00%
Elapsed time = 0.38 sec. (233.85 ticks, tree = 0.01 MB, solutions = 2)

Clique cuts applied:  307
Cover cuts applied:  6
Mixed integer rounding cuts applied:  15
Zero-half cuts applied:  2
Lift and project cuts applied:  2

Root node processing (before b&c):
  Real time             =    0.38 sec. (234.05 ticks)
Parallel b&c, 4 threads:
  Real time             =    0.00 sec. (0.00 ticks)
  Sync time (average)   =    0.00 sec.
  Wait time (average)   =    0.00 sec.
                          ------------
Total (root+branch&cut) =    0.38 sec. (234.05 ticks)
